NAME          DCAP_2_4_3_500_SS179
ROWS
 N  OBJ
 L  CON1
 L  CON2
 L  CON3
 L  CON4
 L  CON5
 L  CON6
 L  CON7
 L  CON8
 L  CON9
 L  CON10
 L  CON11
 L  CON12
 E  CON13
 E  CON14
 E  CON15
 E  CON16
 E  CON17
 E  CON18
 E  CON19
 E  CON20
 E  CON21
 E  CON22
 E  CON23
 E  CON24
COLUMNS
    x[1,1]    OBJ       6.180167      CON1      1.000000    
    x[1,1]    CON7      -1.000000     CON8      -1.000000   
    x[1,1]    CON9      -1.000000   
    x[1,2]    OBJ       6.563535      CON2      1.000000    
    x[1,2]    CON8      -1.000000     CON9      -1.000000   
    x[1,3]    OBJ       7.443064      CON3      1.000000    
    x[1,3]    CON9      -1.000000   
    x[2,1]    OBJ       6.732585      CON4      1.000000    
    x[2,1]    CON10     -1.000000     CON11     -1.000000   
    x[2,1]    CON12     -1.000000   
    x[2,2]    OBJ       5.039546      CON5      1.000000    
    x[2,2]    CON11     -1.000000     CON12     -1.000000   
    x[2,3]    OBJ       6.054841      CON6      1.000000    
    x[2,3]    CON12     -1.000000   
    MARKER    'MARKER'                'INTORG'
    u[1,1]    OBJ       48.076654     CON1      -1.000000   
    u[1,2]    OBJ       20.066487     CON2      -1.000000   
    u[1,3]    OBJ       32.230043     CON3      -1.000000   
    u[2,1]    OBJ       49.996186     CON4      -1.000000   
    u[2,2]    OBJ       49.466655     CON5      -1.000000   
    u[2,3]    OBJ       27.484319     CON6      -1.000000   
    y[1,1,1]  OBJ       5.826568      CON7      1.230311    
    y[1,1,1]  CON13     1.000000    
    y[1,1,2]  OBJ       9.977205      CON8      1.053038    
    y[1,1,2]  CON14     1.000000    
    y[1,1,3]  OBJ       5.883241      CON9      1.496072    
    y[1,1,3]  CON15     1.000000    
    y[1,2,1]  OBJ       5.112986      CON7      0.531627    
    y[1,2,1]  CON16     1.000000    
    y[1,2,2]  OBJ       8.950576      CON8      1.355329    
    y[1,2,2]  CON17     1.000000    
    y[1,2,3]  OBJ       8.070861      CON9      0.785394    
    y[1,2,3]  CON18     1.000000    
    y[1,3,1]  OBJ       8.564918      CON7      1.412117    
    y[1,3,1]  CON19     1.000000    
    y[1,3,2]  OBJ       7.714630      CON8      0.579936    
    y[1,3,2]  CON20     1.000000    
    y[1,3,3]  OBJ       5.352102      CON9      1.382648    
    y[1,3,3]  CON21     1.000000    
    y[1,4,1]  OBJ       9.873656      CON7      0.965914    
    y[1,4,1]  CON22     1.000000    
    y[1,4,2]  OBJ       7.516757      CON8      0.822343    
    y[1,4,2]  CON23     1.000000    
    y[1,4,3]  OBJ       8.534073      CON9      0.961726    
    y[1,4,3]  CON24     1.000000    
    y[2,1,1]  OBJ       6.444548      CON10     1.230311    
    y[2,1,1]  CON13     1.000000    
    y[2,1,2]  OBJ       7.651491      CON11     1.053038    
    y[2,1,2]  CON14     1.000000    
    y[2,1,3]  OBJ       8.840625      CON12     1.496072    
    y[2,1,3]  CON15     1.000000    
    y[2,2,1]  OBJ       9.668305      CON10     0.531627    
    y[2,2,1]  CON16     1.000000    
    y[2,2,2]  OBJ       9.558417      CON11     1.355329    
    y[2,2,2]  CON17     1.000000    
    y[2,2,3]  OBJ       8.730099      CON12     0.785394    
    y[2,2,3]  CON18     1.000000    
    y[2,3,1]  OBJ       5.764505      CON10     1.412117    
    y[2,3,1]  CON19     1.000000    
    y[2,3,2]  OBJ       9.937328      CON11     0.579936    
    y[2,3,2]  CON20     1.000000    
    y[2,3,3]  OBJ       9.914555      CON12     1.382648    
    y[2,3,3]  CON21     1.000000    
    y[2,4,1]  OBJ       5.250006      CON10     0.965914    
    y[2,4,1]  CON22     1.000000    
    y[2,4,2]  OBJ       9.078724      CON11     0.822343    
    y[2,4,2]  CON23     1.000000    
    y[2,4,3]  OBJ       5.464850      CON12     0.961726    
    y[2,4,3]  CON24     1.000000    
    z[1,1]    OBJ       857.309946    CON13     1.000000    
    z[1,2]    OBJ       932.724260    CON14     1.000000    
    z[1,3]    OBJ       639.732985    CON15     1.000000    
    z[2,1]    OBJ       995.736772    CON16     1.000000    
    z[2,2]    OBJ       836.665318    CON17     1.000000    
    z[2,3]    OBJ       656.763892    CON18     1.000000    
    z[3,1]    OBJ       947.864382    CON19     1.000000    
    z[3,2]    OBJ       835.180203    CON20     1.000000    
    z[3,3]    OBJ       885.193312    CON21     1.000000    
    z[4,1]    OBJ       620.704781    CON22     1.000000    
    z[4,2]    OBJ       773.264924    CON23     1.000000    
    z[4,3]    OBJ       642.302915    CON24     1.000000    
    MARKER    'MARKER'                 'INTEND'
RHS
    RHS       CON1      -0.000000     CON2      -0.000000   
    RHS       CON3      -0.000000     CON4      -0.000000   
    RHS       CON5      -0.000000     CON6      -0.000000   
    RHS       CON7      -0.000000     CON8      -0.000000   
    RHS       CON9      -0.000000     CON10     -0.000000   
    RHS       CON11     -0.000000     CON12     -0.000000   
    RHS       CON13     1.000000      CON14     1.000000    
    RHS       CON15     1.000000      CON16     1.000000    
    RHS       CON17     1.000000      CON18     1.000000    
    RHS       CON19     1.000000      CON20     1.000000    
    RHS       CON21     1.000000      CON22     1.000000    
    RHS       CON23     1.000000      CON24     1.000000    
BOUNDS
 BV BOUND     u[1,1]  
 BV BOUND     u[1,2]  
 BV BOUND     u[1,3]  
 BV BOUND     u[2,1]  
 BV BOUND     u[2,2]  
 BV BOUND     u[2,3]  
 BV BOUND     y[1,1,1]
 BV BOUND     y[1,1,2]
 BV BOUND     y[1,1,3]
 BV BOUND     y[1,2,1]
 BV BOUND     y[1,2,2]
 BV BOUND     y[1,2,3]
 BV BOUND     y[1,3,1]
 BV BOUND     y[1,3,2]
 BV BOUND     y[1,3,3]
 BV BOUND     y[1,4,1]
 BV BOUND     y[1,4,2]
 BV BOUND     y[1,4,3]
 BV BOUND     y[2,1,1]
 BV BOUND     y[2,1,2]
 BV BOUND     y[2,1,3]
 BV BOUND     y[2,2,1]
 BV BOUND     y[2,2,2]
 BV BOUND     y[2,2,3]
 BV BOUND     y[2,3,1]
 BV BOUND     y[2,3,2]
 BV BOUND     y[2,3,3]
 BV BOUND     y[2,4,1]
 BV BOUND     y[2,4,2]
 BV BOUND     y[2,4,3]
 BV BOUND     z[1,1]  
 BV BOUND     z[1,2]  
 BV BOUND     z[1,3]  
 BV BOUND     z[2,1]  
 BV BOUND     z[2,2]  
 BV BOUND     z[2,3]  
 BV BOUND     z[3,1]  
 BV BOUND     z[3,2]  
 BV BOUND     z[3,3]  
 BV BOUND     z[4,1]  
 BV BOUND     z[4,2]  
 BV BOUND     z[4,3]  
ENDATA
